(declare-const tr1 Int)
(declare-const Id_MCDC_100 Int)
(declare-const Id_MCDC_134@width Int)
(declare-const tr0 Int)
(declare-const term_to_project_onto0 Real)
(declare-const Id_MCDC_134@pos Int)
(declare-const |Id_MCDC_134@width'| Int)
(declare-const type_err Int)
(declare-const |Id_MCDC_134'| Int)
(declare-const term_to_project_onto Real)
(declare-const type_err0 Int)
(declare-const Id_MCDC_134 Int)
(declare-const |Id_MCDC_134@pos'| Int)
(declare-const tr Int)
(declare-const term_to_project_onto1 Real)
(assert (and (or (<= (+ (- Id_MCDC_100) tr0 1) 0)
                   (<= (+ (- tr) Id_MCDC_100 1) 0))
               (or (<= (+ tr1 1) 0) (<= (+ (- tr1) 1) 0))
               (= (+ (- type_err0) |Id_MCDC_134@width'|) 0)
               (= (+ (- type_err) |Id_MCDC_134@pos'|) 0)
               (= (+ |Id_MCDC_134'| (- tr1)) 0)
               (= term_to_project_onto1 (+ |Id_MCDC_134'| (- Id_MCDC_134)))
               (= term_to_project_onto0 (+ |Id_MCDC_134@pos'|
                                             (- Id_MCDC_134@pos)))
               (= term_to_project_onto (+ |Id_MCDC_134@width'|
                                            (- Id_MCDC_134@width)))))
(check-sat)
